! AutoGAMESS Version 1.0.35
!  by Brian C. Ferrari 
!
 $CONTRL SCFTYP=RHF MULT=1 NPRINT=0 COORD=UNIQUE
 RUNTYP=RAMAN ICUT=12 ITOL=25 DFTTYP=B3LYP
 MAXIT=200 QMTTOL=1E-7 ICHARG=0 ISPHER=1 $END
 $SYSTEM MWORDS=800 MEMDDI=800 $END
 $STATPT OPTTOL=1E-6 NSTEP=200 $END
 $FORCE METHOD=SEMINUM NVIB=2 PROJCT=.TRUE. $END
 $SCF DIRSCF=.TRUE. FDIFF=.FALSE. CONV=1d-7 $END
 $DFT JANS=2 $END
 $BASIS GBASIS=CCD $END
 $DATA
Water
CnV 2,

 O           8.0  -0.0000000000   0.0000000000  -0.0123124953
 H           1.0  -0.0000000000  -0.7568059270   0.5926920477
$END $GRAD  
E=      -76.3834832786  GMAX=   0.0000002  GRMS=   0.0000001
O            8.    0.0000000000E+00    0.0000000000E+00    1.5336757648E-07
H            1.    0.0000000000E+00   -1.5394770259E-07   -7.6683788242E-08
H            1.    0.0000000000E+00    1.5394770259E-07   -7.6683788242E-08
 $END
 $HESS
ENERGY IS      -76.3834832786 E(NUC) IS        9.0881328122
 1  1 1.71398354E-05 0.00000000E+00-4.96979641E-14-8.02509533E-06 2.54620181E-13
 1  2 4.68272486E-14-8.02505885E-06-1.99654305E-13 2.88643417E-15
 2  1 0.00000000E+00 6.40544305E-01-1.41073910E-08 1.71027939E-13-3.20272778E-01
 2  2-2.56037700E-01 1.71008329E-13-3.20272778E-01 2.56037714E-01
 3  1-4.96979641E-14-1.41073910E-08 4.51324514E-01-5.13794328E-13-1.93265362E-01
 3  2-2.25663482E-01 5.13806162E-13 1.93265373E-01-2.25663492E-01
 4  1-8.02509533E-06 1.71027939E-13-5.13794328E-13 7.56638370E-06-3.13345876E-14
 4  2 1.88521980E-13 1.71101527E-29-1.39714999E-13 3.25258569E-13
 5  1 2.54620181E-13-3.20272778E-01-1.93265362E-01-3.13345876E-14 3.53454073E-01
 5  2 2.24651133E-01-1.39714999E-13-3.31806695E-02-3.13866647E-02
 6  1 4.68272486E-14-2.56037700E-01-2.25663482E-01 1.88521980E-13 2.24651133E-01
 6  2 2.15152901E-01-3.25258568E-13 3.13866647E-02 1.05118157E-02
 7  1-8.02505885E-06 1.71008329E-13 5.13806162E-13 1.71101527E-29-1.39714999E-13
 7  2-3.25258568E-13 7.56638370E-06-3.12913029E-14-1.88549492E-13
 8  1-1.99654305E-13-3.20272778E-01 1.93265373E-01-1.39714999E-13-3.31806695E-02
 8  2 3.13866647E-02-3.12913029E-14 3.53454073E-01-2.24651133E-01
 9  1 2.88643417E-15 2.56037714E-01-2.25663492E-01 3.25258569E-13-3.13866647E-02
 9  2 1.05118157E-02-1.88549492E-13-2.24651133E-01 2.15152901E-01
 $END
 $DIPDR
 -3.20186718E+00 0.00000000E+00 0.00000000E+00
  0.00000000E+00-1.88902727E+00-1.63718937E-07
  0.00000000E+00 2.17122553E-07-1.44533626E+00
  1.60095345E+00-2.57568718E-11 1.64841865E-12
 -1.12250275E-16 9.44519371E-01-3.30679989E-01
 -6.05177417E-17-5.24817198E-01 7.22639311E-01
  1.60095345E+00-2.57567914E-11-1.64845915E-12
 -3.18602855E-17 9.44519371E-01 3.30679989E-01
 -3.75382851E-18 5.24817198E-01 7.22639311E-01
 $END
