! AutoGAMESS TEST
!  by Brian C. Ferrari 
!
 $CONTRL SCFTYP=RHF MULT=1 NPRINT=0 COORD=UNIQUE
 RUNTYP=OPTIMIZE ICUT=12 ITOL=25 DFTTYP=B3LYP
 MAXIT=200 QMTTOL=1E-7 ICHARG=0 ISPHER=1 $END
 $SYSTEM MWORDS=800 MEMDDI=800 $END
 $STATPT OPTTOL=1E-6 NSTEP=200 $END
 $SCF DIRSCF=.TRUE. FDIFF=.FALSE. CONV=1d-7 $END
 $DFT JANS=2 $END
 $BASIS GBASIS=CCD $END
 $DATA
 Your Title Goes Here
CnV 2,

 O           8.0  -0.0000000000   0.0000000000  -0.0123155409
 H           1.0  -0.0000000000  -0.7568005555   0.5926935705
$END